NAME : random530880
COMMENT: random generated with id 530880
TYPE : TSP
DIMENSION : 20
EDGE_WEIGHT_TYPE : EUC_2D
NODE_COORD_SECTION
1 2.321197 4.118535
2 19.694032 13.939124
3 7.300606 4.921079
4 10.484024 17.220656
5 8.179973 3.256640
6 18.126832 12.879969
7 14.061805 7.505351
8 18.658072 10.965864
9 0.560827 16.325232
10 19.552723 1.361236
11 3.672670 15.354005
12 14.064533 5.418916
13 2.863183 13.193317
14 5.148749 13.992729
15 18.561709 4.370235
16 5.983407 0.882906
17 8.488770 5.677439
18 14.822030 15.789377
19 10.598518 5.306054
20 13.010032 18.778491
EOF
